1000 1020
8 8
151 55 87 103 31 200 19 331 
10 156 24 14 119 364 45 241 
205 2 240 44 153 196 15 107 
11 172 54 208 93 39 276 78 
140 15 79 130 94 3 436 83 
91 123 77 139 228 158 98 33 
18 44 259 326 241 18 69 11 
374 430 90 6 37 5 42 16 
